10J3M/DAT/10J3MUTL-6.dat
10 3
10.0833 10.0833
34.0653 34.0653
48.7278 48.7278
35.4636 35.4636
24.1968 24.1968
27.1241 27.1241
47.1051 47.1051
10.7251 10.7251
33.0643 33.0643
5.8963 5.8963
69.1129