10J3M/SOL/10J3MUTL-6.sol
solution status: optimal solution found
objective value:                              69.1129
x#1#1                                               1 	(obj:0)
x#2#2                                               1 	(obj:0)
x#3#2                              0.0407016118109171 	(obj:0)
x#4#3                                               1 	(obj:0)
x#5#1                                               1 	(obj:0)
x#6#1                               0.671410295641146 	(obj:0)
x#6#3                               0.328589704358854 	(obj:0)
x#7#3                               0.525136344047672 	(obj:0)
x#8#1                                               1 	(obj:0)
x#9#2                                               1 	(obj:0)
x#10#1                                              1 	(obj:0)
z                                             69.1129 	(obj:1)
